c ---- [ banner ] ------------------------------------------------------------
c
c Kissat SAT Solver
c 
c Copyright (c) 2021-2024 Armin Biere University of Freiburg
c Copyright (c) 2019-2021 Armin Biere Johannes Kepler University Linz
c 
c Version 4.0.1 43f02cf3e992cb44653b35e5cb26f93281552ae0
c gcc (Ubuntu 13.2.0-23ubuntu4) 13.2.0 -W -Wall -O3 -DNDEBUG
c Thu Sep 12 12:27:46 CEST 2024 Linux abryzen9 6.8.0-41-generic x86_64
c
c ---- [ parsing ] -----------------------------------------------------------
c
c opened and reading DIMACS file:
c
c   /data/artifact/AMulet2.0_artifact/exp4/cnf_resyn3_64/64_64_U_SP_DT_CK_GenMul_resyn3.cnf
c
c parsed 'p cnf 24990 112697' header
c closing input after reading 2237419 bytes (2 MB)
c finished parsing after 0.03 seconds
c
c ---- [ options ] -----------------------------------------------------------
c
c --stable=0                       (different from default '1')
c
c ---- [ solving ] -----------------------------------------------------------
c
c  seconds switched rate     size/glue tier1  binary          remaining
c         MB reductions conflicts size  tier2    irredundant
c          level restarts redundant glue  trail          variables
c
c *  0.03  9 0 0 0  0 0   0   0 0.0 0 0 0 0 0% 9039 103656 24987 100%
c (  0.05 11 0 0 0  0 0   0   0 0.0 0 0 0 0 0% 9039 103656 24987 100%
c .  0.06 11 0 0 0  0 0   0   0 0.0 0 0 0 0 0% 9035 103656 24987 100%
c =  0.17 17 0 0 0  0 0   0   0 0.0 0 0 0 0 0% 9280 103656 24912 100%
c d  0.18 17 0 0 0  0 0   0   0 0.0 0 0 0 0 0% 9130 103656 24912 100%
c f  0.29 17 0 0 0  0 0   0   0 0.0 0 0 0 0 0% 14098 95871 27707 111%
c e  0.47 21 0 0 0  0 0   0   0 0.0 0 0 0 0 0% 8577 103534 18918 76%
c )  0.47 21 0 0 0  0 0   0   0 0.0 0 0 0 0 0% 8577 103534 18918 76%
c {  0.49 26 0 0 0  0 0   0   0 0.0 0 0 2 6 0% 8577 103534 18918 76%
c -  0.78 28 341 0 1 163 41 1000 803 4.0 31 8 4 14 30% 8587 103534 18918 76%
c -  1.09 28 381 0 2 280 37 2000 1519 4.8 36 8 4 14 31% 8599 103534 18918 76%
c d  1.17 28 424 0 2 308 37 2502 1969 4.5 33 7 4 13 30% 8604 103534 18917 76%
c u  1.20 28 424 0 2 308 37 2502 1542 4.5 33 7 4 13 30% 8608 103534 18917 76%
c v  1.23 28 424 0 2 308 37 2502 1464 4.5 33 7 4 13 30% 8608 103534 18917 76%
c w  1.25 28 424 0 2 308 37 2502 1464 4.5 33 7 4 13 30% 8608 103534 18917 76%
c =  1.36 28 424 0 2 308 37 2502 1464 4.5 33 7 4 13 30% 8664 103532 18889 76%
c d  1.37 28 424 0 2 308 37 2502 1464 4.5 33 7 4 13 30% 8607 103532 18889 76%
c f  1.43 28 424 0 2 308 37 2502 1464 4.5 33 7 4 13 30% 9170 102386 19469 78%
c u  1.52 22 424 0 2 308 37 2502 1432 4.5 33 7 4 13 30% 9171 102386 19469 78%
c v  1.54 22 424 0 2 308 37 2502 1349 4.5 33 7 4 13 30% 9171 102386 19469 78%
c
c  seconds   switched   rate       size/glue tier1     binary          remaining
c         MB  reductions conflicts       size  tier2      irredundant
c           level restarts    redundant    glue    trail          variables
c
c w  1.58 22 424 0 2 308 37 2502 1347 4.5 33 7 4 13 30% 9171 102386 19469 78%
c =  1.64 22 424 0 2 308 37 2502 1347 4.5 33 7 4 13 30% 9663 102386 19223 77%
c d  1.65 22 424 0 2 308 37 2502 1347 4.5 33 7 4 13 30% 9113 102386 19223 77%
c f  1.68 22 424 0 2 308 37 2502 1347 4.5 33 7 4 13 30% 9121 102374 19227 77%
c -  1.85 24 411 0 3 384 37 3414 1729 4.6 33 7 4 12 29% 9152 102374 19227 77%
c -  2.35 24 383 0 4 533 35 5146 2769 4.3 31 7 3 12 30% 9199 102374 19227 77%
c -  2.94 24 392 0 5 728 35 7147 3881 4.3 31 7 3 11 29% 9275 102374 19227 77%
c d  3.06 24 387 0 5 778 35 7705 4205 4.3 31 7 3 11 28% 9199 102374 19163 77%
c u  3.10 24 387 0 5 778 35 7705 3537 4.3 31 7 3 11 28% 9220 102374 19163 77%
c v  3.14 24 387 0 5 778 35 7705 3208 4.3 31 7 3 11 28% 9220 102374 19163 77%
c w  3.17 24 387 0 5 778 35 7705 3207 4.3 31 7 3 11 28% 9220 102374 19163 77%
c x  3.20 24 387 0 5 778 35 7705 3207 4.3 31 7 3 11 28% 9220 101990 19163 77%
c =  3.34 24 387 0 5 778 35 7705 3207 4.3 31 7 3 11 28% 10144 101990 18701 75%
c d  3.35 24 387 0 5 778 35 7705 3164 4.3 31 7 3 11 28% 9101 101990 18698 75%
c t  3.37 24 387 0 5 778 35 7705 3164 4.3 31 7 3 11 28% 9100 101990 18698 75%
c f  3.42 24 387 0 5 778 35 7705 3164 4.3 31 7 3 11 28% 9354 101590 18825 75%
c u  3.46 24 387 0 5 778 35 7705 3054 4.3 31 7 3 11 28% 9355 101590 18825 75%
c v  3.49 24 387 0 5 778 35 7705 2987 4.3 31 7 3 11 28% 9355 101590 18825 75%
c w  3.54 24 387 0 5 778 35 7705 2982 4.3 31 7 3 11 28% 9355 101590 18825 75%
c x  3.57 24 387 0 5 778 35 7705 2982 4.3 31 7 3 11 28% 9355 101561 18825 75%
c
c  seconds   switched   rate       size/glue tier1     binary           remaining
c         MB  reductions conflicts       size  tier2       irredundant
c           level restarts    redundant    glue    trail           variables
c
c =  3.70 24 387 0 5 778 35 7705 2982 4.3 31 7 3 11 28% 10347 101561 18329 73%
c d  3.71 24 387 0 5 778 35 7705 2966 4.3 31 7 3 11 28% 9248 101561 18329 73%
c t  3.73 24 387 0 5 778 35 7705 2966 4.3 31 7 3 11 28% 9193 101561 18329 73%
c f  3.78 24 387 0 5 778 35 7705 2966 4.3 31 7 3 11 28% 10953 98920 19209 77%
c -  4.20 24 386 0 6 928 35 9383 3926 4.1 29 7 3 11 28% 10987 98920 19209 77%
c o  4.43 24 382 0 6 1013 35 10001 4426 4.2 30 7 3 11 28% 11005 98920 19209 77%
c -  4.99 24 390 0 7 1209 36 11832 5121 4.5 33 7 2 11 28% 11059 98920 19209 77%
c s  5.30 24 380 0 7 1306 36 12505 5725 4.6 34 7 2 11 28% 11074 92876 19209 77%
c e  5.42 24 380 0 7 1306 36 12505 5725 4.6 34 7 2 11 28% 10781 92995 19013 76%
c s  5.42 24 380 0 7 1306 36 12505 5725 4.6 34 7 2 11 28% 10784 92880 19013 76%
c ^  5.43 24 380 0 7 1306 36 12505 5725 4.6 34 7 2 11 28% 10784 92880 19013 76%
c -  5.90 24 377 0 8 1462 35 14479 6303 4.5 33 7 2 10 28% 10833 92880 19013 76%
c c  6.38 24 366 0 8 1618 35 15783 7414 4.5 34 7 2 10 28% 10893 92778 18985 76%
c d  6.39 24 366 0 8 1618 35 15783 7394 4.5 34 7 2 10 28% 10566 92778 18824 75%
c u  6.43 24 366 0 8 1618 35 15783 6523 4.5 34 7 2 10 28% 10583 92778 18824 75%
c v  6.50 24 366 0 8 1618 35 15783 5558 4.5 34 7 2 10 28% 10584 92778 18824 75%
c w  6.64 24 366 0 8 1618 35 15783 5556 4.5 34 7 2 10 28% 10584 92778 18824 75%
c =  6.85 24 366 0 8 1618 35 15783 5556 4.5 34 7 2 10 28% 11484 92774 18374 74%
c d  6.85 24 366 0 8 1618 35 15783 5502 4.5 34 7 2 10 28% 10395 92774 18371 74%
c t  6.87 24 366 0 8 1618 35 15783 5502 4.5 34 7 2 10 28% 10342 92774 18371 74%
c
c  seconds   switched    rate        size/glue tier1     binary          remaining
c         MB  reductions   conflicts       size  tier2       irredundant
c           level  restarts     redundant    glue    trail          variables
c
c f  6.94 24 366 0 8 1618 35 15783 5502 4.5 34 7 2 10 28% 10356 92745 18378 74%
c u  6.99 24 366 0 8 1618 35 15783 5320 4.5 34 7 2 10 28% 10362 92745 18378 74%
c v  7.04 24 366 0 8 1618 35 15783 5200 4.5 34 7 2 10 28% 10362 92745 18378 74%
c w  7.14 24 366 0 8 1618 35 15783 5173 4.5 34 7 2 10 28% 10362 92745 18378 74%
c x  7.18 24 366 0 8 1618 35 15783 5173 4.5 34 7 2 10 28% 10362 92315 18378 74%
c =  7.40 24 366 0 8 1618 35 15783 5173 4.5 34 7 2 10 28% 11534 92315 17792 71%
c d  7.41 24 366 0 8 1618 35 15783 5124 4.5 34 7 2 10 28% 10112 92315 17792 71%
c -  7.94 24 371 0 9 1753 36 17307 5690 4.5 34 8 2 10 28% 10153 92315 17792 71%
c o  8.83 24 354 0 9 2021 35 20053 8181 4.4 35 8 2 10 29% 10206 92315 17792 71%
c -  8.95 24 357 0 10 2051 35 20307 7387 4.5 35 8 2 10 29% 10213 92315 17792 71%
c -  9.81 24 337 0 11 2299 34 23469 8920 4.4 35 8 2 9 29% 10277 92315 17792 71%
c s 10.26 24 334 0 11 2468 34 25006 10278 4.4 36 8 2 9 29% 10309 88315 17792 71%
c e 10.34 24 334 0 11 2468 34 25006 10278 4.4 36 8 2 9 29% 8838 90491 16813 67%
c s 10.34 24 334 0 11 2468 34 25006 10278 4.4 36 8 2 9 29% 8867 90101 16813 67%
c e 10.35 24 334 0 11 2468 34 25006 10278 4.4 36 8 2 9 29% 8867 90101 16811 67%
c ^ 10.35 24 334 0 11 2468 34 25006 10278 4.4 36 8 2 9 29% 8867 90101 16811 67%
c - 10.66 24 327 0 12 2654 34 26786 9392 4.5 37 8 2 9 29% 8909 90101 16811 67%
c c 10.72 24 328 0 12 2675 34 26909 9506 4.5 37 8 2 9 29% 8967 89792 16762 67%
c d 10.73 24 328 0 12 2675 34 26909 9442 4.5 37 8 2 9 29% 8599 89792 16600 66%
c u 10.76 24 328 0 12 2675 34 26909 8418 4.5 37 8 2 9 29% 8612 89792 16600 66%
c
c  seconds   switched     rate        size/glue tier1    binary         remaining
c         MB   reductions   conflicts       size  tier2     irredundant
c           level   restarts     redundant    glue   trail         variables
c
c v 10.79 24 328 0 12 2675 34 26909 7345 4.5 37 8 2 9 29% 8612 89792 16600 66%
c w 10.82 24 328 0 12 2675 34 26909 7340 4.5 37 8 2 9 29% 8612 89792 16600 66%
c x 10.88 24 328 0 12 2675 34 26909 7334 4.5 37 8 2 9 29% 8612 88334 16600 66%
c = 11.10 24 328 0 12 2675 34 26909 7334 4.5 37 8 2 9 29% 13040 88304 14384 58%
c d 11.11 24 328 0 12 2675 34 26909 7115 4.5 37 8 2 9 29% 8497 88304 14382 58%
c t 11.12 24 328 0 12 2675 34 26909 7115 4.5 37 8 2 9 29% 8488 88304 14382 58%
c f 11.16 24 328 0 12 2675 34 26909 7115 4.5 37 8 2 9 29% 8485 88304 14383 58%
c c 11.19 24 328 0 12 2675 34 26909 7115 4.5 37 8 2 9 29% 8487 88296 14382 58%
c d 11.20 24 328 0 12 2675 34 26909 7115 4.5 37 8 2 9 29% 8485 88296 14382 58%
c u 11.22 24 328 0 12 2675 34 26909 6528 4.5 37 8 2 9 29% 8485 88296 14382 58%
c v 11.24 24 328 0 12 2675 34 26909 6398 4.5 37 8 2 9 29% 8485 88296 14382 58%
c w 11.26 24 328 0 12 2675 34 26909 6397 4.5 37 8 2 9 29% 8485 88296 14382 58%
c x 11.33 24 328 0 12 2675 34 26909 6396 4.5 37 8 2 9 29% 8485 78656 14382 58%
c = 11.52 24 328 0 12 2675 34 26909 6396 4.5 37 8 2 9 29% 10007 78580 13612 54%
c d 11.52 24 328 0 12 2675 34 26909 6372 4.5 37 8 2 9 29% 8458 78580 13612 54%
c f 11.55 24 328 0 12 2675 34 26909 6372 4.5 37 8 2 9 29% 8432 78580 13619 54%
c i 11.55 24 327 0 12 2675 34 27083 6434 4.5 37 8 2 9 29% 8471 78580 13618 54%
c - 11.98 24 307 0 13 2946 33 30250 8244 4.3 35 8 2 9 30% 8475 78568 13618 54%
c i 12.01 24 307 0 13 2966 32 30500 8457 4.3 35 8 2 9 30% 8485 78568 13617 54%
c i 12.08 24 306 0 13 3014 32 30994 8895 4.3 35 8 2 9 30% 8492 78566 13616 54%
c
c  seconds   switched     rate        size/glue tier1    binary         remaining
c         MB   reductions   conflicts       size  tier2     irredundant
c           level   restarts     redundant    glue   trail         variables
c
c i 12.08 24 306 0 13 3014 32 31007 8893 4.3 35 8 2 9 30% 8494 78566 13615 54%
c i 12.08 24 306 0 13 3014 32 31020 8896 4.3 35 8 2 9 30% 8497 78565 13613 54%
c - 12.44 24 296 0 14 3250 32 33855 10100 4.2 34 8 2 9 30% 8526 78565 13613 54%
c i 12.64 24 289 0 14 3389 31 35300 11415 4.1 34 8 2 9 30% 8541 78565 13612 54%
c - 12.98 24 285 0 15 3612 31 37596 11682 4.1 34 8 2 9 30% 8569 78564 13612 54%
c i 12.98 24 285 0 15 3614 31 37620 11690 4.1 34 8 2 9 30% 8573 78564 13611 54%
c i 13.14 24 280 0 15 3701 30 38884 12852 4.1 34 8 2 9 30% 8585 78563 13610 54%
c o 13.39 24 278 0 15 3872 31 40053 13935 4.0 34 8 2 9 31% 8592 78563 13610 54%
c i 13.61 24 275 0 15 4038 31 40863 14674 4.1 35 9 2 9 31% 8600 78563 13609 54%
c d 13.65 24 276 0 15 4056 31 41244 14914 4.1 35 9 2 9 31% 8520 78498 13556 54%
c d 13.65 24 276 0 15 4056 31 41244 14907 4.1 35 9 2 9 31% 8490 78498 13542 54%
c b 13.66 24 276 0 15 4056 31 41244 14907 4.1 35 9 2 9 31% 8490 78498 13541 54%
c u 13.69 24 276 0 15 4056 31 41244 12632 4.1 35 9 2 9 31% 8502 78498 13541 54%
c v 13.75 24 276 0 15 4056 31 41244 11479 4.1 35 9 2 9 31% 8502 78498 13541 54%
c w 13.78 24 276 0 15 4056 31 41244 11479 4.1 35 9 2 9 31% 8502 78498 13541 54%
c x 13.84 26 276 0 15 4056 31 41244 11479 4.1 35 9 2 9 31% 8502 71870 13541 54%
c = 14.04 26 276 0 15 4056 31 41244 11479 4.1 35 9 2 9 31% 8508 71870 13538 54%
c d 14.04 26 276 0 15 4056 31 41244 11471 4.1 35 9 2 9 31% 8496 71870 13536 54%
c t 14.05 26 276 0 15 4056 31 41244 11471 4.1 35 9 2 9 31% 8486 71870 13536 54%
c c 14.09 26 276 0 15 4056 31 41244 11471 4.1 35 9 2 9 31% 8511 71694 13512 54%
c
c  seconds   switched     rate         size/glue tier1    binary         remaining
c         MB   reductions   conflicts        size  tier2     irredundant
c           level   restarts      redundant    glue   trail         variables
c
c d 14.09 26 276 0 15 4056 31 41244 11436 4.1 35 9 2 9 31% 8465 71694 13512 54%
c u 14.12 26 276 0 15 4056 31 41244 11100 4.1 35 9 2 9 31% 8466 71694 13512 54%
c v 14.17 26 276 0 15 4056 31 41244 10502 4.1 35 9 2 9 31% 8467 71694 13512 54%
c w 14.24 26 276 0 15 4056 31 41244 10501 4.1 35 9 2 9 31% 8467 71694 13512 54%
c x 14.29 26 276 0 15 4056 31 41244 10501 4.1 35 9 2 9 31% 8467 68494 13512 54%
c = 14.52 26 276 0 15 4056 31 41244 10501 4.1 35 9 2 9 31% 9123 68494 13184 53%
c d 14.52 26 276 0 15 4056 31 41244 10346 4.1 35 9 2 9 31% 8457 68494 13183 53%
c t 14.53 26 276 0 15 4056 31 41244 10346 4.1 35 9 2 9 31% 8456 68494 13183 53%
c f 14.54 26 276 0 15 4056 31 41244 10346 4.1 35 9 2 9 31% 8453 68494 13184 53%
c - 14.56 26 275 0 16 4060 31 41470 9042 4.1 35 9 2 8 31% 8454 68493 13184 53%
c i 14.67 26 270 0 16 4120 30 42388 9868 4.0 35 9 2 8 31% 8467 68490 13183 53%
c i 14.77 26 266 0 16 4196 30 43855 11011 4.0 34 8 2 8 30% 8487 68489 13180 53%
c i 14.81 26 265 0 16 4222 30 44139 11270 4.0 34 8 2 8 31% 8490 68487 13179 53%
c - 14.91 26 261 0 17 4262 29 45470 10851 4.0 33 8 2 8 30% 8504 68482 13179 53%
c - 15.31 26 250 0 18 4535 28 49593 12550 3.8 32 8 2 8 31% 8561 68481 13179 53%
c 2 15.60 26 243 0 18 4735 27 52106 14767 3.8 32 8 2 8 31% 8595 68481 13178 53%
c s 15.61 26 243 0 18 4735 27 52106 14767 3.8 32 8 2 8 31% 8595 65829 13178 53%
c e 15.66 26 243 0 18 4735 27 52106 14767 3.8 32 8 2 8 31% 8158 65963 12792 51%
c s 15.66 26 243 0 18 4735 27 52106 14767 3.8 32 8 2 8 31% 8164 65579 12792 51%
c e 15.67 26 243 0 18 4735 27 52106 14767 3.8 32 8 2 8 31% 8161 65587 12785 51%
c
c  seconds   switched     rate         size/glue tier1    binary         remaining
c         MB   reductions   conflicts        size  tier2     irredundant
c           level   restarts      redundant    glue   trail         variables
c
c ^ 15.67 26 243 0 18 4735 27 52106 14767 3.8 32 8 2 8 31% 8161 65587 12785 51%
c - 15.81 26 240 0 19 4811 27 53835 12526 3.7 31 8 2 8 31% 8195 65585 12785 51%
c - 16.19 26 232 0 20 5078 25 58193 14141 3.6 30 8 2 8 31% 8300 65585 12785 51%
c c 16.27 26 230 0 20 5101 25 58912 14693 3.6 30 8 2 8 31% 8392 64732 12671 51%
c d 16.27 26 230 0 20 5101 25 58912 14212 3.6 30 8 2 8 31% 8164 64732 12671 51%
c u 16.31 26 230 0 20 5101 25 58912 12234 3.6 30 8 2 8 31% 8185 64732 12671 51%
c v 16.34 26 230 0 20 5101 25 58912 11480 3.6 30 8 2 8 31% 8190 64732 12671 51%
c w 16.36 26 230 0 20 5101 25 58912 11477 3.6 30 8 2 8 31% 8190 64732 12671 51%
c x 16.40 26 230 0 20 5101 25 58912 11477 3.6 30 8 2 8 31% 8190 64488 12671 51%
c = 16.54 26 230 0 20 5101 25 58912 11477 3.6 30 8 2 8 31% 8526 64488 12503 50%
c d 16.55 26 230 0 20 5101 25 58912 11342 3.6 30 8 2 8 31% 8157 64488 12497 50%
c t 16.56 26 230 0 20 5101 25 58912 11342 3.6 30 8 2 8 31% 8151 64488 12497 50%
c f 16.57 26 230 0 20 5101 25 58912 11342 3.6 30 8 2 8 31% 8157 64461 12500 50%
c c 16.60 26 230 0 20 5101 25 58912 11289 3.6 30 8 2 8 31% 8168 64409 12494 50%
c d 16.60 26 230 0 20 5101 25 58912 11289 3.6 30 8 2 8 31% 8156 64409 12494 50%
c b 16.61 26 230 0 20 5101 25 58912 11289 3.6 30 8 2 8 31% 8156 64409 12493 50%
c u 16.63 26 230 0 20 5101 25 58912 10839 3.6 30 8 2 8 31% 8163 64409 12493 50%
c v 16.67 26 230 0 20 5101 25 58912 10208 3.6 30 8 2 8 31% 8166 64409 12493 50%
c w 16.69 26 230 0 20 5101 25 58912 10190 3.6 30 8 2 8 31% 8166 64409 12493 50%
c x 16.73 26 230 0 20 5101 25 58912 10189 3.6 30 8 2 8 31% 8168 63407 12493 50%
c
c  seconds   switched     rate         size/glue tier1    binary         remaining
c         MB   reductions   conflicts        size  tier2     irredundant
c           level   restarts      redundant    glue   trail         variables
c
c = 16.93 26 230 0 20 5101 25 58912 10189 3.6 30 8 2 8 31% 8447 63383 12351 49%
c d 16.93 26 230 0 20 5101 25 58912 10025 3.6 30 8 2 8 31% 8138 63383 12351 49%
c - 17.11 26 222 0 21 5201 24 62666 11450 3.6 29 8 2 7 30% 8164 63383 12351 49%
c - 17.36 26 211 0 22 5427 23 67251 13391 3.5 28 8 2 7 29% 8263 63383 12351 49%
c o 17.49 26 204 0 22 5501 22 70094 15674 3.4 27 8 2 7 29% 8313 63383 12351 49%
c i 17.61 26 201 0 22 5641 22 71858 17096 3.4 27 8 2 7 28% 8348 63383 12350 49%
c - 17.61 26 201 0 23 5641 22 71941 14978 3.4 27 8 2 7 28% 8350 63383 12350 49%
c i 17.81 26 194 0 23 5791 21 75048 17685 3.4 27 8 2 7 28% 8381 63383 12347 49%
c i 17.85 26 193 0 23 5821 21 75713 18204 3.3 26 8 2 7 28% 8392 63383 12345 49%
c i 17.88 26 192 0 23 5836 21 76318 18641 3.3 26 8 2 7 28% 8418 63383 12343 49%
c i 17.88 26 191 0 23 5837 21 76478 18772 3.3 26 8 2 7 28% 8425 63383 12340 49%
c i 17.89 26 191 0 23 5850 21 76562 18833 3.3 26 8 2 7 28% 8431 63383 12339 49%
c - 17.89 26 191 0 24 5852 20 76737 15886 3.3 26 8 2 7 28% 8421 63383 12339 49%
c i 17.89 26 191 0 24 5852 20 76787 15915 3.3 26 8 2 7 28% 8425 63383 12337 49%
c i 17.90 26 191 0 24 5866 20 76883 15973 3.3 26 8 2 7 28% 8432 63383 12330 49%
c i 17.91 26 190 0 24 5866 20 77032 16082 3.3 26 8 2 7 28% 8433 63383 12329 49%
c i 17.91 26 190 0 24 5866 20 77102 16147 3.3 26 8 2 7 28% 8435 63383 12328 49%
c i 17.91 26 190 0 24 5866 20 77170 16194 3.3 26 8 2 7 28% 8441 63383 12326 49%
c i 17.91 26 190 0 24 5866 20 77173 16195 3.3 26 8 2 7 28% 8442 63383 12323 49%
c } 17.91 26 190 0 24 5866 20 77175 16195 3.3 26 8 2 7 28% 8442 63383 12320 49%
c
c  seconds   switched     rate         size/glue tier1    binary         remaining
c         MB   reductions   conflicts        size  tier2     irredundant
c           level   restarts      redundant    glue   trail         variables
c
c 0 17.91 26 190 0 24 5866 20 77175 16195 3.3 26 8 2 7 28% 8442 63383 12320 49%
c
c ---- [ result ] ------------------------------------------------------------
c
s UNSATISFIABLE
c
c ---- [ profiling ] ---------------------------------------------------------
c
c          12.18   68.04 %  search
c          12.18   68.04 %  focused
c           5.23   29.21 %  simplify
c           5.12   28.58 %  probe
c           2.07   11.56 %  sweep
c           1.77    9.88 %  vivify
c           0.49    2.76 %  factor
c           0.42    2.32 %  preprocess
c           0.35    1.94 %  eliminate
c           0.34    1.90 %  congruence
c           0.32    1.79 %  substitute
c           0.17    0.95 %  fastel
c           0.12    0.65 %  reduce
c           0.08    0.47 %  transitive
c           0.07    0.38 %  subsume
c           0.05    0.27 %  lucky
c           0.04    0.22 %  backbone
c           0.03    0.17 %  parse
c =============================================
c          17.91  100.00 %  total
c
c ---- [ statistics ] --------------------------------------------------------
c
c chronological:                         2997                4 %  conflicts
c conflicts:                            77175             4309.30 per second
c congruent:                              221                1 %  variables
c decisions:                          1614094               20.91 per conflict
c eliminated:                           10359               41 %  variables
c factored:                              4405               18 %  variables
c fast_eliminated:                       8789               85 %  eliminated
c fast_subsumed:                          205                1 %  per subsumed
c iterations:                              25                0 %  variables
c propagations:                      70742085          3950100    per second
c reductions:                              24             3216    interval
c reordered:                                4            19294    interval
c restarts:                              5866               13    interval
c strengthened:                           276                0 %  checks
c substituted:                           6649               27 %  variables
c subsumed:                             13732                1 %  checks
c switched:                                 0                0    interval
c vivified:                             42434               12 %  checks
c
c ---- [ glue usage ] --------------------------------------------------------
c
c focused glue 2   used 38328 clauses 25.40% accumulated 69.77% tier1
c focused glue 3   used 12344 clauses  8.18% accumulated 77.95%
c focused glue 4-5 used 13055 clauses  8.65% accumulated 86.60%
c focused glue 6   used  3895 clauses  2.58% accumulated 89.18%
c focused glue 7   used  2972 clauses  1.97% accumulated 91.15% tier2
c
c ---- [ resources ] ---------------------------------------------------------
c
c maximum-resident-set-size:         29040640 bytes         28 MB
c process-time:                            18s              17.91 seconds
c
c ---- [ shutting down ] -----------------------------------------------------
c
c exit 20
